# Solution for model MR
# Objective value = 1.8001264704910454e+03
z 1.8001264704910454e+03
X(0,0)<-(Y) 0
X(0,0)<-(U) 0
X(0,0)<-(J) 5.2491878065789410e-01
X(0,0)<-(H) 0
X(0,0)<-(G) 0
X(0,0)<-(F) 0
X(0,0)<-(R) 0
X(0,0)<-(T) 0
X(0,1)<-(Y) 0
X(0,1)<-(U) 0
X(0,1)<-(J) 5.3160065403507373e-01
X(0,1)<-(H) 0
X(0,1)<-(G) 0
X(0,1)<-(F) 0
X(0,1)<-(R) 0
X(0,1)<-(T) 0
X(0,2)<-(Y) 0
X(0,2)<-(U) 0
X(0,2)<-(J) 0
X(0,2)<-(H) 5.3160065403507373e-01
X(0,2)<-(G) 0
X(0,2)<-(F) 0
X(0,2)<-(R) 0
X(0,2)<-(T) 0
X(0,3)<-(Y) 0
X(0,3)<-(U) 0
X(0,3)<-(J) 0
X(0,3)<-(H) 0
X(0,3)<-(G) 0.546875
X(0,3)<-(F) 0
X(0,3)<-(R) 0
X(0,3)<-(T) 0
X(0,4)<-(Y) 0
X(0,4)<-(U) 0
X(0,4)<-(J) 0
X(0,4)<-(H) 0
X(0,4)<-(G) 6.1262765880651937e-01
X(0,4)<-(F) 0
X(0,4)<-(R) 0
X(0,4)<-(T) 0
X(0,5)<-(Y) 0
X(0,5)<-(U) 0
X(0,5)<-(J) 0
X(0,5)<-(H) 0
X(0,5)<-(G) 0
X(0,5)<-(F) 7.2932945412488581e-01
X(0,5)<-(R) 0
X(0,5)<-(T) 0
X(0,7)<-(Y) 0
X(0,7)<-(U) 0
X(0,7)<-(J) 0
X(0,7)<-(H) 0
X(0,7)<-(G) 0.5
X(0,7)<-(F) 0
X(0,7)<-(R) 0
X(0,7)<-(T) 0
X(0,8)<-(Y) 0
X(0,8)<-(U) 0
X(0,8)<-(J) 0
X(0,8)<-(H) 0
X(0,8)<-(G) 0.5
X(0,8)<-(F) 0
X(0,8)<-(R) 0
X(0,8)<-(T) 0
X(0,9)<-(Y) 0
X(0,9)<-(U) 0
X(0,9)<-(J) 0
X(0,9)<-(H) 0
X(0,9)<-(G) 0
X(0,9)<-(F) 0.5
X(0,9)<-(R) 0
X(0,9)<-(T) 0
X(1,0)<-(Y) 0
X(1,0)<-(U) 5.8858607784896777e-01
X(1,0)<-(J) 0
X(1,0)<-(H) 0
X(1,0)<-(G) 0
X(1,0)<-(F) 0
X(1,0)<-(R) 0
X(1,0)<-(T) 0
X(1,2)<-(Y) 0
X(1,2)<-(U) 0
X(1,2)<-(J) 0
X(1,2)<-(H) 0
X(1,2)<-(G) 0.5
X(1,2)<-(F) 0
X(1,2)<-(R) 0
X(1,2)<-(T) 0
X(1,3)<-(Y) 0
X(1,3)<-(U) 0
X(1,3)<-(J) 0
X(1,3)<-(H) 0
X(1,3)<-(G) 0.5
X(1,3)<-(F) 0
X(1,3)<-(R) 0
X(1,3)<-(T) 0
X(1,4)<-(Y) 0
X(1,4)<-(U) 0
X(1,4)<-(J) 0
X(1,4)<-(H) 0
X(1,4)<-(G) 0
X(1,4)<-(F) 6.1071372580923622e-01
X(1,4)<-(R) 0
X(1,4)<-(T) 0
X(1,7)<-(Y) 0
X(1,7)<-(U) 0
X(1,7)<-(J) 0
X(1,7)<-(H) 5.4028320312500022e-01
X(1,7)<-(G) 0
X(1,7)<-(F) 0
X(1,7)<-(R) 0
X(1,7)<-(T) 0
X(1,8)<-(Y) 0
X(1,8)<-(U) 0
X(1,8)<-(J) 0
X(1,8)<-(H) 5.4028320312500022e-01
X(1,8)<-(G) 0
X(1,8)<-(F) 0
X(1,8)<-(R) 0
X(1,8)<-(T) 0
X(1,9)<-(Y) 0
X(1,9)<-(U) 0
X(1,9)<-(J) 0
X(1,9)<-(H) 0
X(1,9)<-(G) 5.4028320312500022e-01
X(1,9)<-(F) 0
X(1,9)<-(R) 0
X(1,9)<-(T) 0
X(2,0)<-(Y) 0
X(2,0)<-(U) 6.1202357784896777e-01
X(2,0)<-(J) 0
X(2,0)<-(H) 0
X(2,0)<-(G) 0
X(2,0)<-(F) 0
X(2,0)<-(R) 0
X(2,0)<-(T) 0
X(2,2)<-(Y) 0
X(2,2)<-(U) 0
X(2,2)<-(J) 0
X(2,2)<-(H) 0
X(2,2)<-(G) 0
X(2,2)<-(F) 0
X(2,2)<-(R) 0
X(2,2)<-(T) 5.2994639510336972e-01
X(2,3)<-(Y) 0
X(2,3)<-(U) 0
X(2,3)<-(J) 0
X(2,3)<-(H) 0
X(2,3)<-(G) 0
X(2,3)<-(F) 5.2994639510336972e-01
X(2,3)<-(R) 0
X(2,3)<-(T) 0
X(2,4)<-(Y) 0
X(2,4)<-(U) 0
X(2,4)<-(J) 0
X(2,4)<-(H) 0
X(2,4)<-(G) 0
X(2,4)<-(F) 5.7822815215557932e-01
X(2,4)<-(R) 0
X(2,4)<-(T) 0
X(2,6)<-(Y) 6.7129645612247280e-01
X(2,6)<-(U) 0
X(2,6)<-(J) 0
X(2,6)<-(H) 0
X(2,6)<-(G) 0
X(2,6)<-(F) 0
X(2,6)<-(R) 0
X(2,6)<-(T) 0
X(2,7)<-(Y) 0
X(2,7)<-(U) 0
X(2,7)<-(J) 5.6738764775729300e-01
X(2,7)<-(H) 0
X(2,7)<-(G) 0
X(2,7)<-(F) 0
X(2,7)<-(R) 0
X(2,7)<-(T) 0
X(3,0)<-(Y) 0
X(3,0)<-(U) 0
X(3,0)<-(J) 6.2871287847218094e-01
X(3,0)<-(H) 0
X(3,0)<-(G) 0
X(3,0)<-(F) 0
X(3,0)<-(R) 0
X(3,0)<-(T) 0
X(3,1)<-(Y) 0
X(3,1)<-(U) 5.3018569937678683e-01
X(3,1)<-(J) 0
X(3,1)<-(H) 0
X(3,1)<-(G) 0
X(3,1)<-(F) 0
X(3,1)<-(R) 0
X(3,1)<-(T) 0
X(3,2)<-(Y) 0
X(3,2)<-(U) 0
X(3,2)<-(J) 0
X(3,2)<-(H) 6.7414728608157315e-01
X(3,2)<-(G) 0
X(3,2)<-(F) 0
X(3,2)<-(R) 0
X(3,2)<-(T) 0
X(3,4)<-(Y) 0
X(3,4)<-(U) 0
X(3,4)<-(J) 0
X(3,4)<-(H) 0
X(3,4)<-(G) 8.7277699276904297e-01
X(3,4)<-(F) 0
X(3,4)<-(R) 0
X(3,4)<-(T) 0
X(3,5)<-(Y) 0
X(3,5)<-(U) 9.3628050695593723e-01
X(3,5)<-(J) 0
X(3,5)<-(H) 0
X(3,5)<-(G) 0
X(3,5)<-(F) 0
X(3,5)<-(R) 0
X(3,5)<-(T) 0
X(3,6)<-(Y) 0
X(3,6)<-(U) 0
X(3,6)<-(J) 0
X(3,6)<-(H) 6.9302557127804310e-01
X(3,6)<-(G) 0
X(3,6)<-(F) 0
X(3,6)<-(R) 0
X(3,6)<-(T) 0
X(3,7)<-(Y) 0
X(3,7)<-(U) 0
X(3,7)<-(J) 5.7153320312500067e-01
X(3,7)<-(H) 0
X(3,7)<-(G) 0
X(3,7)<-(F) 0
X(3,7)<-(R) 0
X(3,7)<-(T) 0
X(3,8)<-(Y) 0
X(3,8)<-(U) 0
X(3,8)<-(J) 0
X(3,8)<-(H) 0
X(3,8)<-(G) 0
X(3,8)<-(F) 0
X(3,8)<-(R) 5.7153320312500067e-01
X(3,8)<-(T) 0
X(3,9)<-(Y) 0
X(3,9)<-(U) 0
X(3,9)<-(J) 0
X(3,9)<-(H) 0
X(3,9)<-(G) 0
X(3,9)<-(F) 0
X(3,9)<-(R) 6.1394882202148460e-01
X(3,9)<-(T) 0
X(4,0)<-(Y) 0
X(4,0)<-(U) 0
X(4,0)<-(J) 0
X(4,0)<-(H) 5.7172745465828689e-01
X(4,0)<-(G) 0
X(4,0)<-(F) 0
X(4,0)<-(R) 0
X(4,0)<-(T) 0
X(4,1)<-(Y) 0
X(4,1)<-(U) 0
X(4,1)<-(J) 0.5
X(4,1)<-(H) 0
X(4,1)<-(G) 0
X(4,1)<-(F) 0
X(4,1)<-(R) 0
X(4,1)<-(T) 0
X(4,2)<-(Y) 0
X(4,2)<-(U) 0
X(4,2)<-(J) 0
X(4,2)<-(H) 6.4396158670478632e-01
X(4,2)<-(G) 0
X(4,2)<-(F) 0
X(4,2)<-(R) 0
X(4,2)<-(T) 0
X(4,4)<-(Y) 0
X(4,4)<-(U) 0
X(4,4)<-(J) 0
X(4,4)<-(H) 0
X(4,4)<-(G) 8.3400229838785023e-01
X(4,4)<-(F) 0
X(4,4)<-(R) 0
X(4,4)<-(T) 0
X(4,6)<-(Y) 0
X(4,6)<-(U) 5.7834202138074087e-01
X(4,6)<-(J) 0
X(4,6)<-(H) 0
X(4,6)<-(G) 0
X(4,6)<-(F) 0
X(4,6)<-(R) 0
X(4,6)<-(T) 0
X(4,7)<-(Y) 0
X(4,7)<-(U) 0
X(4,7)<-(J) 0
X(4,7)<-(H) 0
X(4,7)<-(G) 8.5937500000000444e-01
X(4,7)<-(F) 0
X(4,7)<-(R) 0
X(4,7)<-(T) 0
X(4,9)<-(Y) 0
X(4,9)<-(U) 0
X(4,9)<-(J) 0
X(4,9)<-(H) 0
X(4,9)<-(G) 0
X(4,9)<-(F) 5.7366561889648438e-01
X(4,9)<-(R) 0
X(4,9)<-(T) 0
X(5,0)<-(Y) 0
X(5,0)<-(U) 5.4828995465828689e-01
X(5,0)<-(J) 0
X(5,0)<-(H) 0
X(5,0)<-(G) 0
X(5,0)<-(F) 0
X(5,0)<-(R) 0
X(5,0)<-(T) 0
X(5,1)<-(Y) 0
X(5,1)<-(U) 0
X(5,1)<-(J) 0.5
X(5,1)<-(H) 0
X(5,1)<-(G) 0
X(5,1)<-(F) 0
X(5,1)<-(R) 0
X(5,1)<-(T) 0
X(5,2)<-(Y) 0
X(5,2)<-(U) 0
X(5,2)<-(J) 0
X(5,2)<-(H) 0
X(5,2)<-(G) 6.3885642887188709e-01
X(5,2)<-(F) 0
X(5,2)<-(R) 0
X(5,2)<-(T) 0
X(5,3)<-(Y) 0
X(5,3)<-(U) 0
X(5,3)<-(J) 0
X(5,3)<-(H) 0
X(5,3)<-(G) 0
X(5,3)<-(F) 6.3796000489441851e-01
X(5,3)<-(R) 0
X(5,3)<-(T) 0
X(5,5)<-(Y) 0
X(5,5)<-(U) 0
X(5,5)<-(J) 0
X(5,5)<-(H) 0
X(5,5)<-(G) 0
X(5,5)<-(F) 0
X(5,5)<-(R) 0
X(5,5)<-(T) 6.1631321011238882e-01
X(5,6)<-(Y) 0
X(5,6)<-(U) 0
X(5,6)<-(J) 0
X(5,6)<-(H) 7.1420342786016722e-01
X(5,6)<-(G) 0
X(5,6)<-(F) 0
X(5,6)<-(R) 0
X(5,6)<-(T) 0
X(5,7)<-(Y) 0
X(5,7)<-(U) 0
X(5,7)<-(J) 1
X(5,7)<-(H) 0
X(5,7)<-(G) 0
X(5,7)<-(F) 0
X(5,7)<-(R) 7.8502859635496164e-02
X(5,7)<-(T) 0
X(5,8)<-(Y) 0
X(5,8)<-(U) 0
X(5,8)<-(J) 0
X(5,8)<-(H) 0
X(5,8)<-(G) 0
X(5,8)<-(F) 0
X(5,8)<-(R) 5.4561143697450598e-01
X(5,8)<-(T) 0
X(5,9)<-(Y) 0
X(5,9)<-(U) 0
X(5,9)<-(J) 0
X(5,9)<-(H) 0
X(5,9)<-(G) 0
X(5,9)<-(F) 0
X(5,9)<-(R) 0
X(5,9)<-(T) 6.0292097655007826e-01
X(6,0)<-(Y) 0
X(6,0)<-(U) 5.4936583165625796e-01
X(6,0)<-(J) 0
X(6,0)<-(H) 0
X(6,0)<-(G) 0
X(6,0)<-(F) 0
X(6,0)<-(R) 0
X(6,0)<-(T) 0
X(6,1)<-(Y) 0
X(6,1)<-(U) 0.5
X(6,1)<-(J) 0
X(6,1)<-(H) 0
X(6,1)<-(G) 0
X(6,1)<-(F) 0
X(6,1)<-(R) 0
X(6,1)<-(T) 0
X(6,2)<-(Y) 0
X(6,2)<-(U) 0
X(6,2)<-(J) 0
X(6,2)<-(H) 0
X(6,2)<-(G) 0.5
X(6,2)<-(F) 0
X(6,2)<-(R) 0
X(6,2)<-(T) 0
X(6,3)<-(Y) 6.0523478225222271e-01
X(6,3)<-(U) 0
X(6,3)<-(J) 0
X(6,3)<-(H) 0
X(6,3)<-(G) 0
X(6,3)<-(F) 0
X(6,3)<-(R) 0
X(6,3)<-(T) 0
X(6,4)<-(Y) 0
X(6,4)<-(U) 0
X(6,4)<-(J) 0
X(6,4)<-(H) 9.9604358054095021e-01
X(6,4)<-(G) 0
X(6,4)<-(F) 0
X(6,4)<-(R) 0
X(6,4)<-(T) 0
X(6,5)<-(Y) 0
X(6,5)<-(U) 0
X(6,5)<-(J) 0
X(6,5)<-(H) 0
X(6,5)<-(G) 0
X(6,5)<-(F) 0
X(6,5)<-(R) 6.8099946397624089e-01
X(6,5)<-(T) 0
X(6,6)<-(Y) 0
X(6,6)<-(U) 0
X(6,6)<-(J) 0
X(6,6)<-(H) 0.59375
X(6,6)<-(G) 0
X(6,6)<-(F) 0
X(6,6)<-(R) 0
X(6,6)<-(T) 0
X(6,8)<-(Y) 0
X(6,8)<-(U) 0
X(6,8)<-(J) 0
X(6,8)<-(H) 6.6666666666667618e-01
X(6,8)<-(G) 0
X(6,8)<-(F) 0
X(6,8)<-(R) 0
X(6,8)<-(T) 0
X(6,9)<-(Y) 0
X(6,9)<-(U) 0
X(6,9)<-(J) 0
X(6,9)<-(H) 0
X(6,9)<-(G) 1
X(6,9)<-(F) 0
X(6,9)<-(R) 0
X(6,9)<-(T) 0
X(7,0)<-(Y) 0
X(7,0)<-(U) 0
X(7,0)<-(J) 5.7413319323835510e-01
X(7,0)<-(H) 0
X(7,0)<-(G) 0
X(7,0)<-(F) 0
X(7,0)<-(R) 0
X(7,0)<-(T) 0
X(7,1)<-(Y) 0
X(7,1)<-(U) 5.2837038041807294e-01
X(7,1)<-(J) 0
X(7,1)<-(H) 0
X(7,1)<-(G) 0
X(7,1)<-(F) 0
X(7,1)<-(R) 0
X(7,1)<-(T) 0
X(7,2)<-(Y) 5.2837038041807294e-01
X(7,2)<-(U) 0
X(7,2)<-(J) 0
X(7,2)<-(H) 0
X(7,2)<-(G) 0
X(7,2)<-(F) 0
X(7,2)<-(R) 0
X(7,2)<-(T) 0
X(7,3)<-(Y) 0
X(7,3)<-(U) 0
X(7,3)<-(J) 0
X(7,3)<-(H) 0
X(7,3)<-(G) 0
X(7,3)<-(F) 0
X(7,3)<-(R) 0
X(7,3)<-(T) 5.7812500000000044e-01
X(7,4)<-(Y) 0
X(7,4)<-(U) 0
X(7,4)<-(J) 0
X(7,4)<-(H) 0
X(7,4)<-(G) 0
X(7,4)<-(F) 0
X(7,4)<-(R) 0
X(7,4)<-(T) 9.0606620171127650e-01
X(7,5)<-(Y) 0
X(7,5)<-(U) 0
X(7,5)<-(J) 0
X(7,5)<-(H) 0
X(7,5)<-(G) 0
X(7,5)<-(F) 0
X(7,5)<-(R) 1
X(7,5)<-(T) 0
X(7,6)<-(Y) 0
X(7,6)<-(U) 0
X(7,6)<-(J) 9.1715679543660666e-01
X(7,6)<-(H) 0
X(7,6)<-(G) 0
X(7,6)<-(F) 0
X(7,6)<-(R) 0
X(7,6)<-(T) 0
X(7,7)<-(Y) 0
X(7,7)<-(U) 0
X(7,7)<-(J) 0
X(7,7)<-(H) 0
X(7,7)<-(G) 0
X(7,7)<-(F) 8.9454112915396433e-01
X(7,7)<-(R) 0
X(7,7)<-(T) 0
X(7,8)<-(Y) 0
X(7,8)<-(U) 0
X(7,8)<-(J) 0
X(7,8)<-(H) 1
X(7,8)<-(G) 0
X(7,8)<-(F) 0
X(7,8)<-(R) 0
X(7,8)<-(T) 0
X(8,0)<-(Y) 5.9890055482045235e-01
X(8,0)<-(U) 0
X(8,0)<-(J) 0
X(8,0)<-(H) 0
X(8,0)<-(G) 0
X(8,0)<-(F) 0
X(8,0)<-(R) 0
X(8,0)<-(T) 0
X(8,1)<-(Y) 0
X(8,1)<-(U) 0
X(8,1)<-(J) 5.5313774200017007e-01
X(8,1)<-(H) 0
X(8,1)<-(G) 0
X(8,1)<-(F) 0
X(8,1)<-(R) 0
X(8,1)<-(T) 0
X(8,2)<-(Y) 0
X(8,2)<-(U) 0
X(8,2)<-(J) 0
X(8,2)<-(H) 0
X(8,2)<-(G) 0
X(8,2)<-(F) 0
X(8,2)<-(R) 0
X(8,2)<-(T) 7.8010078534475369e-01
X(8,3)<-(Y) 5.9060326500698246e-01
X(8,3)<-(U) 0
X(8,3)<-(J) 0
X(8,3)<-(H) 0
X(8,3)<-(G) 0
X(8,3)<-(F) 0
X(8,3)<-(R) 0
X(8,3)<-(T) 0
X(8,4)<-(Y) 0
X(8,4)<-(U) 0
X(8,4)<-(J) 0
X(8,4)<-(H) 0
X(8,4)<-(G) 0
X(8,4)<-(F) 0
X(8,4)<-(R) 6.5157973779412559e-01
X(8,4)<-(T) 0
X(8,5)<-(Y) 0
X(8,5)<-(U) 0
X(8,5)<-(J) 0
X(8,5)<-(H) 0
X(8,5)<-(G) 0
X(8,5)<-(F) 0
X(8,5)<-(R) 0
X(8,5)<-(T) 6.3380941877817942e-01
X(8,6)<-(Y) 0
X(8,6)<-(U) 0
X(8,6)<-(J) 7.4950987123006951e-01
X(8,6)<-(H) 0
X(8,6)<-(G) 0
X(8,6)<-(F) 0
X(8,6)<-(R) 0
X(8,6)<-(T) 0
X(8,7)<-(Y) 0
X(8,7)<-(U) 0
X(8,7)<-(J) 1
X(8,7)<-(H) 0
X(8,7)<-(G) 0
X(8,7)<-(F) 0
X(8,7)<-(R) 0
X(8,7)<-(T) 0
X(8,8)<-(Y) 5.7879684987388624e-01
X(8,8)<-(U) 1.0251678431670562e-01
X(8,8)<-(J) 0
X(8,8)<-(H) 0
X(8,8)<-(G) 0
X(8,8)<-(F) 0
X(8,8)<-(R) 0
X(8,8)<-(T) 0
X(8,9)<-(Y) 0
X(8,9)<-(U) 3.1018845078326374e-01
X(8,9)<-(J) 0
X(8,9)<-(H) 0
X(8,9)<-(G) 0
X(8,9)<-(F) 0
X(8,9)<-(R) 0
X(8,9)<-(T) 5.2826192077578493e-01
X(9,0)<-(Y) 0
X(9,0)<-(U) 5.7760818667140301e-01
X(9,0)<-(J) 0
X(9,0)<-(H) 0
X(9,0)<-(G) 0
X(9,0)<-(F) 0
X(9,0)<-(R) 0
X(9,0)<-(T) 0
X(9,1)<-(Y) 7.5419380112205259e-01
X(9,1)<-(U) 0
X(9,1)<-(J) 0
X(9,1)<-(H) 0
X(9,1)<-(G) 0
X(9,1)<-(F) 0
X(9,1)<-(R) 0
X(9,1)<-(T) 0
X(9,2)<-(Y) 6.1738949436040780e-01
X(9,2)<-(U) 0
X(9,2)<-(J) 0
X(9,2)<-(H) 0
X(9,2)<-(G) 0
X(9,2)<-(F) 0
X(9,2)<-(R) 0
X(9,2)<-(T) 0
X(9,3)<-(Y) 0
X(9,3)<-(U) 0
X(9,3)<-(J) 0
X(9,3)<-(H) 0
X(9,3)<-(G) 0
X(9,3)<-(F) 0
X(9,3)<-(R) 0
X(9,3)<-(T) 6.6659674215331066e-01
X(9,4)<-(Y) 0
X(9,4)<-(U) 0
X(9,4)<-(J) 0
X(9,4)<-(H) 0
X(9,4)<-(G) 0
X(9,4)<-(F) 0
X(9,4)<-(R) 0
X(9,4)<-(T) 8.4271095251825145e-01
X(9,5)<-(Y) 9.7880752599590104e-01
X(9,5)<-(U) 0
X(9,5)<-(J) 0
X(9,5)<-(H) 0
X(9,5)<-(G) 0
X(9,5)<-(F) 0
X(9,5)<-(R) 0
X(9,5)<-(T) 0
X(9,6)<-(Y) 0
X(9,6)<-(U) 1
X(9,6)<-(J) 0
X(9,6)<-(H) 0
X(9,6)<-(G) 0
X(9,6)<-(F) 0
X(9,6)<-(R) 0
X(9,6)<-(T) 0
X(9,8)<-(Y) 0
X(9,8)<-(U) 0
X(9,8)<-(J) 0
X(9,8)<-(H) 0
X(9,8)<-(G) 2.8515647095151991e-01
X(9,8)<-(F) 0
X(9,8)<-(R) 0
X(9,8)<-(T) 0.546875
X(9,9)<-(Y) 0
X(9,9)<-(U) 1
X(9,9)<-(J) 5.5213404214146757e-02
X(9,9)<-(H) 6.1635563183853570e-01
X(9,9)<-(G) 1
X(9,9)<-(F) 0
X(9,9)<-(R) 5.2476227753636495e-01
X(9,9)<-(T) 0
D(0,0)<-(Y) 0
D(0,0)<-(U) 0
D(0,0)<-(J) 1
D(0,0)<-(H) 0
D(0,0)<-(G) 0
D(0,0)<-(F) 0
D(0,0)<-(R) 0
D(0,0)<-(T) 0
D(0,1)<-(Y) 0
D(0,1)<-(U) 0
D(0,1)<-(J) 1
D(0,1)<-(H) 0
D(0,1)<-(G) 0
D(0,1)<-(F) 0
D(0,1)<-(R) 0
D(0,1)<-(T) 0
D(0,2)<-(Y) 0
D(0,2)<-(U) 0
D(0,2)<-(J) 0
D(0,2)<-(H) 1
D(0,2)<-(G) 0
D(0,2)<-(F) 0
D(0,2)<-(R) 0
D(0,2)<-(T) 0
D(0,3)<-(Y) 0
D(0,3)<-(U) 0
D(0,3)<-(J) 0
D(0,3)<-(H) 0
D(0,3)<-(G) 1
D(0,3)<-(F) 0
D(0,3)<-(R) 0
D(0,3)<-(T) 0
D(0,4)<-(Y) 0
D(0,4)<-(U) 0
D(0,4)<-(J) 0
D(0,4)<-(H) 0
D(0,4)<-(G) 1
D(0,4)<-(F) 0
D(0,4)<-(R) 0
D(0,4)<-(T) 0
D(0,5)<-(Y) 0
D(0,5)<-(U) 0
D(0,5)<-(J) 0
D(0,5)<-(H) 0
D(0,5)<-(G) 0
D(0,5)<-(F) 1
D(0,5)<-(R) 0
D(0,5)<-(T) 0
D(0,7)<-(Y) 0
D(0,7)<-(U) 0
D(0,7)<-(J) 0
D(0,7)<-(H) 0
D(0,7)<-(G) 1
D(0,7)<-(F) 0
D(0,7)<-(R) 0
D(0,7)<-(T) 0
D(0,8)<-(Y) 0
D(0,8)<-(U) 0
D(0,8)<-(J) 0
D(0,8)<-(H) 0
D(0,8)<-(G) 1
D(0,8)<-(F) 0
D(0,8)<-(R) 0
D(0,8)<-(T) 0
D(0,9)<-(Y) 0
D(0,9)<-(U) 0
D(0,9)<-(J) 0
D(0,9)<-(H) 0
D(0,9)<-(G) 0
D(0,9)<-(F) 1
D(0,9)<-(R) 0
D(0,9)<-(T) 0
D(1,0)<-(Y) 0
D(1,0)<-(U) 1
D(1,0)<-(J) 0
D(1,0)<-(H) 0
D(1,0)<-(G) 0
D(1,0)<-(F) 0
D(1,0)<-(R) 0
D(1,0)<-(T) 0
D(1,2)<-(Y) 0
D(1,2)<-(U) 0
D(1,2)<-(J) 0
D(1,2)<-(H) 0
D(1,2)<-(G) 1
D(1,2)<-(F) 0
D(1,2)<-(R) 0
D(1,2)<-(T) 0
D(1,3)<-(Y) 0
D(1,3)<-(U) 0
D(1,3)<-(J) 0
D(1,3)<-(H) 0
D(1,3)<-(G) 1
D(1,3)<-(F) 0
D(1,3)<-(R) 0
D(1,3)<-(T) 0
D(1,4)<-(Y) 0
D(1,4)<-(U) 0
D(1,4)<-(J) 0
D(1,4)<-(H) 0
D(1,4)<-(G) 0
D(1,4)<-(F) 1
D(1,4)<-(R) 0
D(1,4)<-(T) 0
D(1,7)<-(Y) 0
D(1,7)<-(U) 0
D(1,7)<-(J) 0
D(1,7)<-(H) 1
D(1,7)<-(G) 0
D(1,7)<-(F) 0
D(1,7)<-(R) 0
D(1,7)<-(T) 0
D(1,8)<-(Y) 0
D(1,8)<-(U) 0
D(1,8)<-(J) 0
D(1,8)<-(H) 1
D(1,8)<-(G) 0
D(1,8)<-(F) 0
D(1,8)<-(R) 0
D(1,8)<-(T) 0
D(1,9)<-(Y) 0
D(1,9)<-(U) 0
D(1,9)<-(J) 0
D(1,9)<-(H) 0
D(1,9)<-(G) 1
D(1,9)<-(F) 0
D(1,9)<-(R) 0
D(1,9)<-(T) 0
D(2,0)<-(Y) 0
D(2,0)<-(U) 1
D(2,0)<-(J) 0
D(2,0)<-(H) 0
D(2,0)<-(G) 0
D(2,0)<-(F) 0
D(2,0)<-(R) 0
D(2,0)<-(T) 0
D(2,2)<-(Y) 0
D(2,2)<-(U) 0
D(2,2)<-(J) 0
D(2,2)<-(H) 0
D(2,2)<-(G) 0
D(2,2)<-(F) 0
D(2,2)<-(R) 0
D(2,2)<-(T) 1
D(2,3)<-(Y) 0
D(2,3)<-(U) 0
D(2,3)<-(J) 0
D(2,3)<-(H) 0
D(2,3)<-(G) 0
D(2,3)<-(F) 1
D(2,3)<-(R) 0
D(2,3)<-(T) 0
D(2,4)<-(Y) 0
D(2,4)<-(U) 0
D(2,4)<-(J) 0
D(2,4)<-(H) 0
D(2,4)<-(G) 0
D(2,4)<-(F) 1
D(2,4)<-(R) 0
D(2,4)<-(T) 0
D(2,6)<-(Y) 1
D(2,6)<-(U) 0
D(2,6)<-(J) 0
D(2,6)<-(H) 0
D(2,6)<-(G) 0
D(2,6)<-(F) 0
D(2,6)<-(R) 0
D(2,6)<-(T) 0
D(2,7)<-(Y) 0
D(2,7)<-(U) 0
D(2,7)<-(J) 1
D(2,7)<-(H) 0
D(2,7)<-(G) 0
D(2,7)<-(F) 0
D(2,7)<-(R) 0
D(2,7)<-(T) 0
D(3,0)<-(Y) 0
D(3,0)<-(U) 0
D(3,0)<-(J) 1
D(3,0)<-(H) 0
D(3,0)<-(G) 0
D(3,0)<-(F) 0
D(3,0)<-(R) 0
D(3,0)<-(T) 0
D(3,1)<-(Y) 0
D(3,1)<-(U) 1
D(3,1)<-(J) 0
D(3,1)<-(H) 0
D(3,1)<-(G) 0
D(3,1)<-(F) 0
D(3,1)<-(R) 0
D(3,1)<-(T) 0
D(3,2)<-(Y) 0
D(3,2)<-(U) 0
D(3,2)<-(J) 0
D(3,2)<-(H) 1
D(3,2)<-(G) 0
D(3,2)<-(F) 0
D(3,2)<-(R) 0
D(3,2)<-(T) 0
D(3,4)<-(Y) 0
D(3,4)<-(U) 0
D(3,4)<-(J) 0
D(3,4)<-(H) 0
D(3,4)<-(G) 1
D(3,4)<-(F) 0
D(3,4)<-(R) 0
D(3,4)<-(T) 0
D(3,5)<-(Y) 0
D(3,5)<-(U) 1
D(3,5)<-(J) 0
D(3,5)<-(H) 0
D(3,5)<-(G) 0
D(3,5)<-(F) 0
D(3,5)<-(R) 0
D(3,5)<-(T) 0
D(3,6)<-(Y) 0
D(3,6)<-(U) 0
D(3,6)<-(J) 0
D(3,6)<-(H) 1
D(3,6)<-(G) 0
D(3,6)<-(F) 0
D(3,6)<-(R) 0
D(3,6)<-(T) 0
D(3,7)<-(Y) 0
D(3,7)<-(U) 0
D(3,7)<-(J) 1
D(3,7)<-(H) 0
D(3,7)<-(G) 0
D(3,7)<-(F) 0
D(3,7)<-(R) 0
D(3,7)<-(T) 0
D(3,8)<-(Y) 0
D(3,8)<-(U) 0
D(3,8)<-(J) 0
D(3,8)<-(H) 0
D(3,8)<-(G) 0
D(3,8)<-(F) 0
D(3,8)<-(R) 1
D(3,8)<-(T) 0
D(3,9)<-(Y) 0
D(3,9)<-(U) 0
D(3,9)<-(J) 0
D(3,9)<-(H) 0
D(3,9)<-(G) 0
D(3,9)<-(F) 0
D(3,9)<-(R) 1
D(3,9)<-(T) 0
D(4,0)<-(Y) 0
D(4,0)<-(U) 0
D(4,0)<-(J) 0
D(4,0)<-(H) 1
D(4,0)<-(G) 0
D(4,0)<-(F) 0
D(4,0)<-(R) 0
D(4,0)<-(T) 0
D(4,1)<-(Y) 0
D(4,1)<-(U) 0
D(4,1)<-(J) 1
D(4,1)<-(H) 0
D(4,1)<-(G) 0
D(4,1)<-(F) 0
D(4,1)<-(R) 0
D(4,1)<-(T) 0
D(4,2)<-(Y) 0
D(4,2)<-(U) 0
D(4,2)<-(J) 0
D(4,2)<-(H) 1
D(4,2)<-(G) 0
D(4,2)<-(F) 0
D(4,2)<-(R) 0
D(4,2)<-(T) 0
D(4,4)<-(Y) 0
D(4,4)<-(U) 0
D(4,4)<-(J) 0
D(4,4)<-(H) 0
D(4,4)<-(G) 1
D(4,4)<-(F) 0
D(4,4)<-(R) 0
D(4,4)<-(T) 0
D(4,6)<-(Y) 0
D(4,6)<-(U) 1
D(4,6)<-(J) 0
D(4,6)<-(H) 0
D(4,6)<-(G) 0
D(4,6)<-(F) 0
D(4,6)<-(R) 0
D(4,6)<-(T) 0
D(4,7)<-(Y) 0
D(4,7)<-(U) 0
D(4,7)<-(J) 0
D(4,7)<-(H) 0
D(4,7)<-(G) 1
D(4,7)<-(F) 0
D(4,7)<-(R) 0
D(4,7)<-(T) 0
D(4,9)<-(Y) 0
D(4,9)<-(U) 0
D(4,9)<-(J) 0
D(4,9)<-(H) 0
D(4,9)<-(G) 0
D(4,9)<-(F) 1
D(4,9)<-(R) 0
D(4,9)<-(T) 0
D(5,0)<-(Y) 0
D(5,0)<-(U) 1
D(5,0)<-(J) 0
D(5,0)<-(H) 0
D(5,0)<-(G) 0
D(5,0)<-(F) 0
D(5,0)<-(R) 0
D(5,0)<-(T) 0
D(5,1)<-(Y) 0
D(5,1)<-(U) 0
D(5,1)<-(J) 1
D(5,1)<-(H) 0
D(5,1)<-(G) 0
D(5,1)<-(F) 0
D(5,1)<-(R) 0
D(5,1)<-(T) 0
D(5,2)<-(Y) 0
D(5,2)<-(U) 0
D(5,2)<-(J) 0
D(5,2)<-(H) 0
D(5,2)<-(G) 1
D(5,2)<-(F) 0
D(5,2)<-(R) 0
D(5,2)<-(T) 0
D(5,3)<-(Y) 0
D(5,3)<-(U) 0
D(5,3)<-(J) 0
D(5,3)<-(H) 0
D(5,3)<-(G) 0
D(5,3)<-(F) 1
D(5,3)<-(R) 0
D(5,3)<-(T) 0
D(5,5)<-(Y) 0
D(5,5)<-(U) 0
D(5,5)<-(J) 0
D(5,5)<-(H) 0
D(5,5)<-(G) 0
D(5,5)<-(F) 0
D(5,5)<-(R) 0
D(5,5)<-(T) 1
D(5,6)<-(Y) 0
D(5,6)<-(U) 0
D(5,6)<-(J) 0
D(5,6)<-(H) 1
D(5,6)<-(G) 0
D(5,6)<-(F) 0
D(5,6)<-(R) 0
D(5,6)<-(T) 0
D(5,7)<-(Y) 0
D(5,7)<-(U) 0
D(5,7)<-(J) 1
D(5,7)<-(H) 0
D(5,7)<-(G) 0
D(5,7)<-(F) 0
D(5,7)<-(R) 0
D(5,7)<-(T) 0
D(5,8)<-(Y) 0
D(5,8)<-(U) 0
D(5,8)<-(J) 0
D(5,8)<-(H) 0
D(5,8)<-(G) 0
D(5,8)<-(F) 0
D(5,8)<-(R) 1
D(5,8)<-(T) 0
D(5,9)<-(Y) 0
D(5,9)<-(U) 0
D(5,9)<-(J) 0
D(5,9)<-(H) 0
D(5,9)<-(G) 0
D(5,9)<-(F) 0
D(5,9)<-(R) 0
D(5,9)<-(T) 1
D(6,0)<-(Y) 0
D(6,0)<-(U) 1
D(6,0)<-(J) 0
D(6,0)<-(H) 0
D(6,0)<-(G) 0
D(6,0)<-(F) 0
D(6,0)<-(R) 0
D(6,0)<-(T) 0
D(6,1)<-(Y) 0
D(6,1)<-(U) 1
D(6,1)<-(J) 0
D(6,1)<-(H) 0
D(6,1)<-(G) 0
D(6,1)<-(F) 0
D(6,1)<-(R) 0
D(6,1)<-(T) 0
D(6,2)<-(Y) 0
D(6,2)<-(U) 0
D(6,2)<-(J) 0
D(6,2)<-(H) 0
D(6,2)<-(G) 1
D(6,2)<-(F) 0
D(6,2)<-(R) 0
D(6,2)<-(T) 0
D(6,3)<-(Y) 1
D(6,3)<-(U) 0
D(6,3)<-(J) 0
D(6,3)<-(H) 0
D(6,3)<-(G) 0
D(6,3)<-(F) 0
D(6,3)<-(R) 0
D(6,3)<-(T) 0
D(6,4)<-(Y) 0
D(6,4)<-(U) 0
D(6,4)<-(J) 0
D(6,4)<-(H) 1
D(6,4)<-(G) 0
D(6,4)<-(F) 0
D(6,4)<-(R) 0
D(6,4)<-(T) 0
D(6,5)<-(Y) 0
D(6,5)<-(U) 0
D(6,5)<-(J) 0
D(6,5)<-(H) 0
D(6,5)<-(G) 0
D(6,5)<-(F) 0
D(6,5)<-(R) 1
D(6,5)<-(T) 0
D(6,6)<-(Y) 0
D(6,6)<-(U) 0
D(6,6)<-(J) 0
D(6,6)<-(H) 1
D(6,6)<-(G) 0
D(6,6)<-(F) 0
D(6,6)<-(R) 0
D(6,6)<-(T) 0
D(6,8)<-(Y) 0
D(6,8)<-(U) 0
D(6,8)<-(J) 0
D(6,8)<-(H) 1
D(6,8)<-(G) 0
D(6,8)<-(F) 0
D(6,8)<-(R) 0
D(6,8)<-(T) 0
D(6,9)<-(Y) 0
D(6,9)<-(U) 0
D(6,9)<-(J) 0
D(6,9)<-(H) 0
D(6,9)<-(G) 1
D(6,9)<-(F) 0
D(6,9)<-(R) 0
D(6,9)<-(T) 0
D(7,0)<-(Y) 0
D(7,0)<-(U) 0
D(7,0)<-(J) 1
D(7,0)<-(H) 0
D(7,0)<-(G) 0
D(7,0)<-(F) 0
D(7,0)<-(R) 0
D(7,0)<-(T) 0
D(7,1)<-(Y) 0
D(7,1)<-(U) 1
D(7,1)<-(J) 0
D(7,1)<-(H) 0
D(7,1)<-(G) 0
D(7,1)<-(F) 0
D(7,1)<-(R) 0
D(7,1)<-(T) 0
D(7,2)<-(Y) 1
D(7,2)<-(U) 0
D(7,2)<-(J) 0
D(7,2)<-(H) 0
D(7,2)<-(G) 0
D(7,2)<-(F) 0
D(7,2)<-(R) 0
D(7,2)<-(T) 0
D(7,3)<-(Y) 0
D(7,3)<-(U) 0
D(7,3)<-(J) 0
D(7,3)<-(H) 0
D(7,3)<-(G) 0
D(7,3)<-(F) 0
D(7,3)<-(R) 0
D(7,3)<-(T) 1
D(7,4)<-(Y) 0
D(7,4)<-(U) 0
D(7,4)<-(J) 0
D(7,4)<-(H) 0
D(7,4)<-(G) 0
D(7,4)<-(F) 0
D(7,4)<-(R) 0
D(7,4)<-(T) 1
D(7,5)<-(Y) 0
D(7,5)<-(U) 0
D(7,5)<-(J) 0
D(7,5)<-(H) 0
D(7,5)<-(G) 0
D(7,5)<-(F) 0
D(7,5)<-(R) 1
D(7,5)<-(T) 0
D(7,6)<-(Y) 0
D(7,6)<-(U) 0
D(7,6)<-(J) 1
D(7,6)<-(H) 0
D(7,6)<-(G) 0
D(7,6)<-(F) 0
D(7,6)<-(R) 0
D(7,6)<-(T) 0
D(7,7)<-(Y) 0
D(7,7)<-(U) 0
D(7,7)<-(J) 0
D(7,7)<-(H) 0
D(7,7)<-(G) 0
D(7,7)<-(F) 1
D(7,7)<-(R) 0
D(7,7)<-(T) 0
D(7,8)<-(Y) 0
D(7,8)<-(U) 0
D(7,8)<-(J) 0
D(7,8)<-(H) 1
D(7,8)<-(G) 0
D(7,8)<-(F) 0
D(7,8)<-(R) 0
D(7,8)<-(T) 0
D(8,0)<-(Y) 1
D(8,0)<-(U) 0
D(8,0)<-(J) 0
D(8,0)<-(H) 0
D(8,0)<-(G) 0
D(8,0)<-(F) 0
D(8,0)<-(R) 0
D(8,0)<-(T) 0
D(8,1)<-(Y) 0
D(8,1)<-(U) 0
D(8,1)<-(J) 1
D(8,1)<-(H) 0
D(8,1)<-(G) 0
D(8,1)<-(F) 0
D(8,1)<-(R) 0
D(8,1)<-(T) 0
D(8,2)<-(Y) 0
D(8,2)<-(U) 0
D(8,2)<-(J) 0
D(8,2)<-(H) 0
D(8,2)<-(G) 0
D(8,2)<-(F) 0
D(8,2)<-(R) 0
D(8,2)<-(T) 1
D(8,3)<-(Y) 1
D(8,3)<-(U) 0
D(8,3)<-(J) 0
D(8,3)<-(H) 0
D(8,3)<-(G) 0
D(8,3)<-(F) 0
D(8,3)<-(R) 0
D(8,3)<-(T) 0
D(8,4)<-(Y) 0
D(8,4)<-(U) 0
D(8,4)<-(J) 0
D(8,4)<-(H) 0
D(8,4)<-(G) 0
D(8,4)<-(F) 0
D(8,4)<-(R) 1
D(8,4)<-(T) 0
D(8,5)<-(Y) 0
D(8,5)<-(U) 0
D(8,5)<-(J) 0
D(8,5)<-(H) 0
D(8,5)<-(G) 0
D(8,5)<-(F) 0
D(8,5)<-(R) 0
D(8,5)<-(T) 1
D(8,6)<-(Y) 0
D(8,6)<-(U) 0
D(8,6)<-(J) 1
D(8,6)<-(H) 0
D(8,6)<-(G) 0
D(8,6)<-(F) 0
D(8,6)<-(R) 0
D(8,6)<-(T) 0
D(8,7)<-(Y) 0
D(8,7)<-(U) 0
D(8,7)<-(J) 1
D(8,7)<-(H) 0
D(8,7)<-(G) 0
D(8,7)<-(F) 0
D(8,7)<-(R) 0
D(8,7)<-(T) 0
D(8,8)<-(Y) 1
D(8,8)<-(U) 0
D(8,8)<-(J) 0
D(8,8)<-(H) 0
D(8,8)<-(G) 0
D(8,8)<-(F) 0
D(8,8)<-(R) 0
D(8,8)<-(T) 0
D(8,9)<-(Y) 0
D(8,9)<-(U) 0
D(8,9)<-(J) 0
D(8,9)<-(H) 0
D(8,9)<-(G) 0
D(8,9)<-(F) 0
D(8,9)<-(R) 0
D(8,9)<-(T) 1
D(9,0)<-(Y) 0
D(9,0)<-(U) 1
D(9,0)<-(J) 0
D(9,0)<-(H) 0
D(9,0)<-(G) 0
D(9,0)<-(F) 0
D(9,0)<-(R) 0
D(9,0)<-(T) 0
D(9,1)<-(Y) 1
D(9,1)<-(U) 0
D(9,1)<-(J) 0
D(9,1)<-(H) 0
D(9,1)<-(G) 0
D(9,1)<-(F) 0
D(9,1)<-(R) 0
D(9,1)<-(T) 0
D(9,2)<-(Y) 1
D(9,2)<-(U) 0
D(9,2)<-(J) 0
D(9,2)<-(H) 0
D(9,2)<-(G) 0
D(9,2)<-(F) 0
D(9,2)<-(R) 0
D(9,2)<-(T) 0
D(9,3)<-(Y) 0
D(9,3)<-(U) 0
D(9,3)<-(J) 0
D(9,3)<-(H) 0
D(9,3)<-(G) 0
D(9,3)<-(F) 0
D(9,3)<-(R) 0
D(9,3)<-(T) 1
D(9,4)<-(Y) 0
D(9,4)<-(U) 0
D(9,4)<-(J) 0
D(9,4)<-(H) 0
D(9,4)<-(G) 0
D(9,4)<-(F) 0
D(9,4)<-(R) 0
D(9,4)<-(T) 1
D(9,5)<-(Y) 1
D(9,5)<-(U) 0
D(9,5)<-(J) 0
D(9,5)<-(H) 0
D(9,5)<-(G) 0
D(9,5)<-(F) 0
D(9,5)<-(R) 0
D(9,5)<-(T) 0
D(9,6)<-(Y) 0
D(9,6)<-(U) 1
D(9,6)<-(J) 0
D(9,6)<-(H) 0
D(9,6)<-(G) 0
D(9,6)<-(F) 0
D(9,6)<-(R) 0
D(9,6)<-(T) 0
D(9,8)<-(Y) 0
D(9,8)<-(U) 0
D(9,8)<-(J) 0
D(9,8)<-(H) 0
D(9,8)<-(G) 0
D(9,8)<-(F) 0
D(9,8)<-(R) 0
D(9,8)<-(T) 1
D(9,9)<-(Y) 0
D(9,9)<-(U) 0
D(9,9)<-(J) 0
D(9,9)<-(H) 0
D(9,9)<-(G) 0
D(9,9)<-(F) 0
D(9,9)<-(R) 1
D(9,9)<-(T) 0
